CMD:
./solvers/bin/cadical --plain --no-reduce -t 1600 ./data/cnfs//zipcpu-pfcache-p02/zipcpu-pfcache-p02.74.cnf

c --- [ banner ] -------------------------------------------------------------
c 
c CaDiCaL SAT Solver
c Copyright (c) 2016-2024
c A. Biere, M. Fleury, N. Froleyks, K. Fazekas, F. Pollitt, T. Faller
c JKU Linz, University of Freiburg, TU Wien
c 
c Version 2.1.3 5296d3d2a9bf48c154ab2acb5e44625776d821bf
c g++ (Gentoo 12.3.1_p20230526 p2) 12.3.1 20230526 -Wall -Wextra -O3 -DNDEBUG
c Sat Aug 9 07:26:21 PDT 2025 Linux cedar2.int.cedar.computecanada.ca 5.14.0-362.24.2.el9_3.x86_64 x86_64
c 
c --- [ limit ] --------------------------------------------------------------
c 
c setting time limit to 1600 seconds real time (due to '-t 1600')
c 
c --- [ parsing input ] ------------------------------------------------------
c 
c reading DIMACS file from './data/cnfs//zipcpu-pfcache-p02/zipcpu-pfcache-p02.74.cnf'
c opening file to read './data/cnfs//zipcpu-pfcache-p02/zipcpu-pfcache-p02.74.cnf'
c found 'p cnf 1516782 4529071' header
c parsed 4529071 clauses in 0.74 seconds process time
c 
c --- [ options ] ------------------------------------------------------------
c 
c   --compact=false                (different from default 'true')
c   --decompose=false              (different from default 'true')
c   --deduplicate=false            (different from default 'true')
c   --elim=false                   (different from default 'true')
c   --probe=false                  (different from default 'true')
c   --reduce=false                 (different from default 'true')
c   --subsume=false                (different from default 'true')
c   --ternary=false                (different from default 'true')
c   --transred=false               (different from default 'true')
c   --vivify=false                 (different from default 'true')
c 
c --- [ solving ] ------------------------------------------------------------
c 
c time measured in process time since initialization
c 
c  seconds   reductions  redundant   irredundant
c          MB    restarts       trail         variables
c           level   conflicts       glue            remaining
c 
c *  0.74 695  0 0   0    0    0  0% 0 4497060 1504047 99%
c {  0.95 720  0 0   0    0    0  0% 0 4497060 1504047 99%
c i  0.97 720  1 0   0    1    0  1% 0 4497060 1344943 89%
c i  1.01 721 979 0   0    9    7 15% 3 4497060 1341127 88%
c i  1.14 721 591 0   7   69   56 18% 6 4497060 1340855 88%
c i  1.14 721 555 0   7   73   59 17% 6 4497060 1340837 88%
c i  1.15 721 524 0   7   79   62 17% 6 4497060 1340616 88%
c i  1.15 721 465 0   7   90   69 17% 5 4497060 1340396 88%
c i  1.17 721 432 0   7   97   74 16% 5 4497060 1340378 88%
c i  1.18 721 389 0   7  108   83 16% 4 4497060 1340360 88%
c i  1.18 721 374 0   7  112   86 16% 4 4497060 1340342 88%
c i  1.19 721 356 0   7  117   90 16% 4 4497060 1336526 88%
c i  1.20 721 334 0   7  128   95 16% 4 4497060 1333893 88%
c i  1.22 721 279 0   7  151  114 16% 4 4497060 1311772 86%
c i  1.22 721 277 0   7  152  114 16% 4 4497060 1311754 86%
c i  1.22 721 273 0   7  155  115 16% 3 4497060 1308366 86%
c }  1.23 721 264 0   7  161  118 16% 3 4497060 1307986 86%
c 0  1.23 721 264 0   7  161  118 16% 3 4497060 1307986 86%
c 
c --- [ result ] -------------------------------------------------------------
c 
s UNSATISFIABLE
c 
c --- [ run-time profiling ] -------------------------------------------------
c 
c process time taken by individual solving procedures
c (percentage relative to process time for solving)
c 
c         0.74  153.61% parse
c         0.48   99.98% search
c         0.27   56.33% unstable
c         0.21   43.64% lucky
c         0.00    0.00% simplify
c   =================================
c         0.48   39.41% solve
c 
c last line shows process time for solving
c (percentage relative to total process time)
c 
c --- [ statistics ] ---------------------------------------------------------
c 
c chronological:                94        58.39 %  of conflicts
c conflicts:                   161       333.13    per second
c decisions:                  1952      4038.96    per second
c fixed:                    208793        13.77 %  of all variables
c learned:                     139        86.34 %  per conflict
c learned_lits:                976       100.00 %  learned literals
c minimized:                     0         0.00 %  learned literals
c shrunken:                     97         9.94 %  learned literals
c minishrunken:                 15         1.54 %  learned literals
c otfs:                          5         3.11 %  of conflict
c propagations:            3247831         6.72 M  per second
c restarts:                      7        23.00    interval
c subsumed:                      5         0.00 %  of all clauses
c strengthened:                  5         0.00 %  of all clauses
c 
c seconds are measured in process time for solving
c 
c --- [ resources ] ----------------------------------------------------------
c 
c total process time since initialization:         1.23    seconds
c total real time since initialization:            1.24    seconds
c maximum resident set size of process:          719.35    MB
c 
c --- [ shutting down ] ------------------------------------------------------
c 
c exit 20
